; Benchmark for LTL-sketching problem
(set-logic QF_UF)
(set-info :status unknown)
(declare-fun z_0_0 () Bool)
(declare-fun z_0_1 () Bool)
(declare-fun z_0_2 () Bool)
(declare-fun z_0_8 () Bool)
(declare-fun z_0_9 () Bool)
(declare-fun z_0_11 () Bool)
(declare-fun z_0_16 () Bool)
(declare-fun z_0_17 () Bool)
(declare-fun z_0_18 () Bool)
(declare-fun z_0_19 () Bool)
(declare-fun z_0_22 () Bool)
(declare-fun z_0_24 () Bool)
(declare-fun z_0_26 () Bool)
(declare-fun z_0_27 () Bool)
(declare-fun z_0_28 () Bool)
(declare-fun z_0_32 () Bool)
(declare-fun z_0_33 () Bool)
(declare-fun z_0_35 () Bool)
(declare-fun z_0_36 () Bool)
(declare-fun z_0_38 () Bool)
(declare-fun z_0_40 () Bool)
(declare-fun z_0_41 () Bool)
(declare-fun z_0_42 () Bool)
(declare-fun z_0_50 () Bool)
(declare-fun z_0_51 () Bool)
(declare-fun z_0_52 () Bool)
(declare-fun z_0_56 () Bool)
(declare-fun z_0_58 () Bool)
(declare-fun z_0_60 () Bool)
(declare-fun z_0_61 () Bool)
(declare-fun z_0_63 () Bool)
(declare-fun z_0_64 () Bool)
(declare-fun z_0_67 () Bool)
(declare-fun z_0_69 () Bool)
(declare-fun z_0_70 () Bool)
(declare-fun z_0_72 () Bool)
(declare-fun z_0_73 () Bool)
(declare-fun z_0_76 () Bool)
(declare-fun z_0_77 () Bool)
(declare-fun z_0_78 () Bool)
(declare-fun z_0_80 () Bool)
(declare-fun z_0_81 () Bool)
(declare-fun z_0_83 () Bool)
(declare-fun z_2_1 () Bool)
(declare-fun z_2_0 () Bool)
(declare-fun z_2_8 () Bool)
(declare-fun z_2_7 () Bool)
(declare-fun z_2_6 () Bool)
(declare-fun z_2_5 () Bool)
(declare-fun z_2_4 () Bool)
(declare-fun z_2_3 () Bool)
(declare-fun z_2_2 () Bool)
(declare-fun z_0_3 () Bool)
(declare-fun z_0_4 () Bool)
(declare-fun z_0_5 () Bool)
(declare-fun z_0_6 () Bool)
(declare-fun z_0_7 () Bool)
(declare-fun z_2_15 () Bool)
(declare-fun z_2_14 () Bool)
(declare-fun z_2_13 () Bool)
(declare-fun z_2_12 () Bool)
(declare-fun z_2_11 () Bool)
(declare-fun z_2_10 () Bool)
(declare-fun z_2_9 () Bool)
(declare-fun z_0_10 () Bool)
(declare-fun z_0_12 () Bool)
(declare-fun z_0_13 () Bool)
(declare-fun z_0_14 () Bool)
(declare-fun z_0_15 () Bool)
(declare-fun z_2_18 () Bool)
(declare-fun z_2_17 () Bool)
(declare-fun z_2_16 () Bool)
(declare-fun z_2_23 () Bool)
(declare-fun z_2_22 () Bool)
(declare-fun z_2_21 () Bool)
(declare-fun z_2_20 () Bool)
(declare-fun z_2_19 () Bool)
(declare-fun z_0_20 () Bool)
(declare-fun z_0_21 () Bool)
(declare-fun z_0_23 () Bool)
(declare-fun z_2_27 () Bool)
(declare-fun z_2_26 () Bool)
(declare-fun z_2_25 () Bool)
(declare-fun z_2_24 () Bool)
(declare-fun z_0_25 () Bool)
(declare-fun z_2_31 () Bool)
(declare-fun z_2_30 () Bool)
(declare-fun z_2_29 () Bool)
(declare-fun z_2_28 () Bool)
(declare-fun z_0_29 () Bool)
(declare-fun z_0_30 () Bool)
(declare-fun z_0_31 () Bool)
(declare-fun z_2_34 () Bool)
(declare-fun z_2_33 () Bool)
(declare-fun z_2_32 () Bool)
(declare-fun z_0_34 () Bool)
(declare-fun z_2_37 () Bool)
(declare-fun z_2_36 () Bool)
(declare-fun z_2_35 () Bool)
(declare-fun z_0_37 () Bool)
(declare-fun z_2_39 () Bool)
(declare-fun z_2_38 () Bool)
(declare-fun z_0_39 () Bool)
(declare-fun z_2_41 () Bool)
(declare-fun z_2_40 () Bool)
(declare-fun z_2_49 () Bool)
(declare-fun z_2_48 () Bool)
(declare-fun z_2_47 () Bool)
(declare-fun z_2_46 () Bool)
(declare-fun z_2_45 () Bool)
(declare-fun z_2_44 () Bool)
(declare-fun z_2_43 () Bool)
(declare-fun z_2_42 () Bool)
(declare-fun z_0_43 () Bool)
(declare-fun z_0_44 () Bool)
(declare-fun z_0_45 () Bool)
(declare-fun z_0_46 () Bool)
(declare-fun z_0_47 () Bool)
(declare-fun z_0_48 () Bool)
(declare-fun z_0_49 () Bool)
(declare-fun z_2_55 () Bool)
(declare-fun z_2_54 () Bool)
(declare-fun z_2_53 () Bool)
(declare-fun z_2_52 () Bool)
(declare-fun z_2_51 () Bool)
(declare-fun z_2_50 () Bool)
(declare-fun z_0_53 () Bool)
(declare-fun z_0_54 () Bool)
(declare-fun z_0_55 () Bool)
(declare-fun z_2_57 () Bool)
(declare-fun z_2_56 () Bool)
(declare-fun z_0_57 () Bool)
(declare-fun z_2_60 () Bool)
(declare-fun z_2_59 () Bool)
(declare-fun z_2_58 () Bool)
(declare-fun z_0_59 () Bool)
(declare-fun z_2_62 () Bool)
(declare-fun z_2_61 () Bool)
(declare-fun z_0_62 () Bool)
(declare-fun z_2_63 () Bool)
(declare-fun z_2_66 () Bool)
(declare-fun z_2_65 () Bool)
(declare-fun z_2_64 () Bool)
(declare-fun z_0_65 () Bool)
(declare-fun z_0_66 () Bool)
(declare-fun z_2_68 () Bool)
(declare-fun z_2_67 () Bool)
(declare-fun z_0_68 () Bool)
(declare-fun z_2_69 () Bool)
(declare-fun z_2_71 () Bool)
(declare-fun z_2_70 () Bool)
(declare-fun z_0_71 () Bool)
(declare-fun z_2_72 () Bool)
(declare-fun z_2_75 () Bool)
(declare-fun z_2_74 () Bool)
(declare-fun z_2_73 () Bool)
(declare-fun z_0_74 () Bool)
(declare-fun z_0_75 () Bool)
(declare-fun z_2_76 () Bool)
(declare-fun z_2_77 () Bool)
(declare-fun z_2_79 () Bool)
(declare-fun z_2_78 () Bool)
(declare-fun z_0_79 () Bool)
(declare-fun z_2_80 () Bool)
(declare-fun z_2_82 () Bool)
(declare-fun z_2_81 () Bool)
(declare-fun z_0_82 () Bool)
(declare-fun z_2_85 () Bool)
(declare-fun z_2_84 () Bool)
(declare-fun z_2_83 () Bool)
(declare-fun z_0_84 () Bool)
(declare-fun z_0_85 () Bool)
(declare-fun x_2_p () Bool)
(declare-fun x_2_-> () Bool)
(declare-fun x_2_U () Bool)
(declare-fun x_2_v () Bool)
(declare-fun x_2_& () Bool)
(declare-fun x_2_X () Bool)
(declare-fun x_2_! () Bool)
(declare-fun x_2_F () Bool)
(declare-fun x_2_G () Bool)
(assert
 z_0_0)
(assert
 z_0_1)
(assert
 z_0_2)
(assert
 z_0_8)
(assert
 z_0_9)
(assert
 z_0_11)
(assert
 z_0_16)
(assert
 z_0_17)
(assert
 (not z_0_18))
(assert
 z_0_19)
(assert
 z_0_22)
(assert
 z_0_24)
(assert
 z_0_26)
(assert
 z_0_27)
(assert
 z_0_28)
(assert
 z_0_32)
(assert
 z_0_33)
(assert
 z_0_35)
(assert
 z_0_36)
(assert
 z_0_38)
(assert
 z_0_40)
(assert
 z_0_41)
(assert
 z_0_42)
(assert
 z_0_50)
(assert
 z_0_51)
(assert
 z_0_52)
(assert
 z_0_56)
(assert
 z_0_58)
(assert
 z_0_60)
(assert
 z_0_61)
(assert
 z_0_63)
(assert
 z_0_64)
(assert
 z_0_67)
(assert
 z_0_69)
(assert
 z_0_70)
(assert
 z_0_72)
(assert
 z_0_73)
(assert
 z_0_76)
(assert
 z_0_77)
(assert
 z_0_78)
(assert
 z_0_80)
(assert
 z_0_81)
(assert
 z_0_83)
(assert
 (let (($x1379 (or z_2_0 z_2_1)))
 (= z_0_0 $x1379)))
(assert
 (= z_0_1 (or z_2_1 z_2_0)))
(assert
 (= z_0_2 (or z_2_2 z_2_3 z_2_4 z_2_5 z_2_6 z_2_7 z_2_8)))
(assert
 (= z_0_3 (or z_2_3 z_2_4 z_2_5 z_2_6 z_2_7 z_2_8)))
(assert
 (= z_0_4 (or z_2_4 z_2_5 z_2_6 z_2_7 z_2_8)))
(assert
 (let (($x1397 (or z_2_5 z_2_6 z_2_7 z_2_8)))
 (= z_0_5 $x1397)))
(assert
 (= z_0_6 (or z_2_6 z_2_7 z_2_8 z_2_5)))
(assert
 (= z_0_7 (or z_2_7 z_2_8 z_2_5 z_2_6)))
(assert
 (= z_0_8 (or z_2_8 z_2_5 z_2_6 z_2_7)))
(assert
 (= z_0_9 (or z_2_9 z_2_10 z_2_11 z_2_12 z_2_13 z_2_14 z_2_15)))
(assert
 (= z_0_10 (or z_2_10 z_2_11 z_2_12 z_2_13 z_2_14 z_2_15)))
(assert
 (= z_0_11 (or z_2_11 z_2_12 z_2_13 z_2_14 z_2_15)))
(assert
 (let (($x1421 (or z_2_12 z_2_13 z_2_14 z_2_15)))
 (= z_0_12 $x1421)))
(assert
 (= z_0_13 (or z_2_13 z_2_14 z_2_15 z_2_12)))
(assert
 (= z_0_14 (or z_2_14 z_2_15 z_2_12 z_2_13)))
(assert
 (= z_0_15 (or z_2_15 z_2_12 z_2_13 z_2_14)))
(assert
 (= z_0_16 (or z_2_16 z_2_17 z_2_18)))
(assert
 (= z_0_17 (or z_2_17 z_2_18)))
(assert
 (= z_0_18 (or z_2_18)))
(assert
 (= z_0_19 (or z_2_19 z_2_20 z_2_21 z_2_22 z_2_23)))
(assert
 (= z_0_20 (or z_2_20 z_2_21 z_2_22 z_2_23)))
(assert
 (let (($x1451 (or z_2_21 z_2_22 z_2_23)))
 (= z_0_21 $x1451)))
(assert
 (= z_0_22 (or z_2_22 z_2_23 z_2_21)))
(assert
 (= z_0_23 (or z_2_23 z_2_21 z_2_22)))
(assert
 (= z_0_24 (or z_2_24 z_2_25 z_2_26 z_2_27 z_2_0 z_2_1)))
(assert
 (= z_0_25 (or z_2_25 z_2_26 z_2_27 z_2_0 z_2_1)))
(assert
 (= z_0_26 (or z_2_26 z_2_27 z_2_0 z_2_1)))
(assert
 (= z_0_27 (or z_2_27 z_2_0 z_2_1)))
(assert
 (= z_0_28 (or z_2_28 z_2_29 z_2_30 z_2_31 z_2_23 z_2_21 z_2_22)))
(assert
 (= z_0_29 (or z_2_29 z_2_30 z_2_31 z_2_23 z_2_21 z_2_22)))
(assert
 (= z_0_30 (or z_2_30 z_2_31 z_2_23 z_2_21 z_2_22)))
(assert
 (= z_0_31 (or z_2_31 z_2_23 z_2_21 z_2_22)))
(assert
 (= z_0_32 (or z_2_32 z_2_33 z_2_34 z_2_1 z_2_0)))
(assert
 (= z_0_33 (or z_2_33 z_2_34 z_2_1 z_2_0)))
(assert
 (= z_0_34 (or z_2_34 z_2_1 z_2_0)))
(assert
 (= z_0_35 (or z_2_35 z_2_36 z_2_37)))
(assert
 (= z_0_36 (or z_2_36 z_2_37)))
(assert
 (= z_0_37 (or z_2_37)))
(assert
 (= z_0_38 (or z_2_38 z_2_39 z_2_15 z_2_12 z_2_13 z_2_14)))
(assert
 (= z_0_39 (or z_2_39 z_2_15 z_2_12 z_2_13 z_2_14)))
(assert
 (= z_0_40 (or z_2_40 z_2_41 z_2_39 z_2_15 z_2_12 z_2_13 z_2_14)))
(assert
 (= z_0_41 (or z_2_41 z_2_39 z_2_15 z_2_12 z_2_13 z_2_14)))
(assert
 (let (($x1552 (or z_2_42 z_2_43 z_2_44 z_2_45 z_2_46 z_2_47 z_2_48 z_2_49)))
 (= z_0_42 $x1552)))
(assert
 (= z_0_43 (or z_2_43 z_2_44 z_2_45 z_2_46 z_2_47 z_2_48 z_2_49)))
(assert
 (= z_0_44 (or z_2_44 z_2_45 z_2_46 z_2_47 z_2_48 z_2_49)))
(assert
 (= z_0_45 (or z_2_45 z_2_46 z_2_47 z_2_48 z_2_49)))
(assert
 (let (($x1560 (or z_2_46 z_2_47 z_2_48 z_2_49)))
 (= z_0_46 $x1560)))
(assert
 (= z_0_47 (or z_2_47 z_2_48 z_2_49 z_2_46)))
(assert
 (= z_0_48 (or z_2_48 z_2_49 z_2_46 z_2_47)))
(assert
 (= z_0_49 (or z_2_49 z_2_46 z_2_47 z_2_48)))
(assert
 (= z_0_50 (or z_2_50 z_2_51 z_2_52 z_2_53 z_2_54 z_2_55)))
(assert
 (let (($x1579 (or z_2_51 z_2_52 z_2_53 z_2_54 z_2_55)))
 (= z_0_51 $x1579)))
(assert
 (= z_0_52 (or z_2_52 z_2_53 z_2_54 z_2_55 z_2_51)))
(assert
 (= z_0_53 (or z_2_53 z_2_54 z_2_55 z_2_51 z_2_52)))
(assert
 (= z_0_54 (or z_2_54 z_2_55 z_2_51 z_2_52 z_2_53)))
(assert
 (= z_0_55 (or z_2_55 z_2_51 z_2_52 z_2_53 z_2_54)))
(assert
 (= z_0_56 (or z_2_56 z_2_57 z_2_4 z_2_5 z_2_6 z_2_7 z_2_8)))
(assert
 (= z_0_57 (or z_2_57 z_2_4 z_2_5 z_2_6 z_2_7 z_2_8)))
(assert
 (= z_0_58 (or z_2_58 z_2_59 z_2_60 z_2_17 z_2_18)))
(assert
 (= z_0_59 (or z_2_59 z_2_60 z_2_17 z_2_18)))
(assert
 (= z_0_60 (or z_2_60 z_2_17 z_2_18)))
(assert
 (= z_0_61 (or z_2_61 z_2_62 z_2_52 z_2_53 z_2_54 z_2_55 z_2_51)))
(assert
 (= z_0_62 (or z_2_62 z_2_52 z_2_53 z_2_54 z_2_55 z_2_51)))
(assert
 (= z_0_63 (or z_2_63 z_2_34 z_2_1 z_2_0)))
(assert
 (= z_0_64 (or z_2_64 z_2_65 z_2_66 z_2_22 z_2_23 z_2_21)))
(assert
 (= z_0_65 (or z_2_65 z_2_66 z_2_22 z_2_23 z_2_21)))
(assert
 (= z_0_66 (or z_2_66 z_2_22 z_2_23 z_2_21)))
(assert
 (= z_0_67 (or z_2_67 z_2_68 z_2_60 z_2_17 z_2_18)))
(assert
 (= z_0_68 (or z_2_68 z_2_60 z_2_17 z_2_18)))
(assert
 (= z_0_69 (or z_2_69 z_2_13 z_2_14 z_2_15 z_2_12)))
(assert
 (= z_0_70 (or z_2_70 z_2_71 z_2_49 z_2_46 z_2_47 z_2_48)))
(assert
 (= z_0_71 (or z_2_71 z_2_49 z_2_46 z_2_47 z_2_48)))
(assert
 (= z_0_72 (or z_2_72 z_2_32 z_2_33 z_2_34 z_2_1 z_2_0)))
(assert
 (let (($x1681 (or z_2_73 z_2_74 z_2_75 z_2_71 z_2_49 z_2_46 z_2_47 z_2_48)))
 (= z_0_73 $x1681)))
(assert
 (= z_0_74 (or z_2_74 z_2_75 z_2_71 z_2_49 z_2_46 z_2_47 z_2_48)))
(assert
 (= z_0_75 (or z_2_75 z_2_71 z_2_49 z_2_46 z_2_47 z_2_48)))
(assert
 (= z_0_76 (or z_2_76 z_2_48 z_2_49 z_2_46 z_2_47)))
(assert
 (= z_0_77 (or z_2_77 z_2_27 z_2_0 z_2_1)))
(assert
 (= z_0_78 (or z_2_78 z_2_79 z_2_16 z_2_17 z_2_18)))
(assert
 (= z_0_79 (or z_2_79 z_2_16 z_2_17 z_2_18)))
(assert
 (= z_0_80 (or z_2_80 z_2_65 z_2_66 z_2_22 z_2_23 z_2_21)))
(assert
 (let (($x1720 (or z_2_81 z_2_82 z_2_44 z_2_45 z_2_46 z_2_47 z_2_48 z_2_49)))
 (= z_0_81 $x1720)))
(assert
 (= z_0_82 (or z_2_82 z_2_44 z_2_45 z_2_46 z_2_47 z_2_48 z_2_49)))
(assert
 (let (($x1731 (or z_2_83 z_2_84 z_2_85 z_2_45 z_2_46 z_2_47 z_2_48 z_2_49)))
 (= z_0_83 $x1731)))
(assert
 (= z_0_84 (or z_2_84 z_2_85 z_2_45 z_2_46 z_2_47 z_2_48 z_2_49)))
(assert
 (= z_0_85 (or z_2_85 z_2_45 z_2_46 z_2_47 z_2_48 z_2_49)))
(assert
 (and true true))
(assert
 (=> x_2_p z_2_0))
(assert
 (let (($x1766 (not z_2_1)))
 (=> x_2_p $x1766)))
(assert
 (let (($x1769 (not z_2_2)))
 (=> x_2_p $x1769)))
(assert
 (let (($x1772 (not z_2_3)))
 (=> x_2_p $x1772)))
(assert
 (=> x_2_p z_2_4))
(assert
 (let (($x1777 (not z_2_5)))
 (=> x_2_p $x1777)))
(assert
 (=> x_2_p z_2_6))
(assert
 (let (($x1782 (not z_2_7)))
 (=> x_2_p $x1782)))
(assert
 (let (($x1785 (not z_2_8)))
 (=> x_2_p $x1785)))
(assert
 (=> x_2_p z_2_9))
(assert
 (=> x_2_p z_2_10))
(assert
 (let (($x1792 (not z_2_11)))
 (=> x_2_p $x1792)))
(assert
 (=> x_2_p z_2_12))
(assert
 (=> x_2_p z_2_13))
(assert
 (let (($x1799 (not z_2_14)))
 (=> x_2_p $x1799)))
(assert
 (=> x_2_p z_2_15))
(assert
 (=> x_2_p z_2_16))
(assert
 (=> x_2_p z_2_17))
(assert
 (let (($x1808 (not z_2_18)))
 (=> x_2_p $x1808)))
(assert
 (=> x_2_p z_2_19))
(assert
 (let (($x1813 (not z_2_20)))
 (=> x_2_p $x1813)))
(assert
 (let (($x1816 (not z_2_21)))
 (=> x_2_p $x1816)))
(assert
 (let (($x1819 (not z_2_22)))
 (=> x_2_p $x1819)))
(assert
 (=> x_2_p z_2_23))
(assert
 (let (($x1824 (not z_2_24)))
 (=> x_2_p $x1824)))
(assert
 (let (($x1827 (not z_2_25)))
 (=> x_2_p $x1827)))
(assert
 (let (($x1830 (not z_2_26)))
 (=> x_2_p $x1830)))
(assert
 (=> x_2_p z_2_27))
(assert
 (let (($x1835 (not z_2_28)))
 (=> x_2_p $x1835)))
(assert
 (let (($x1838 (not z_2_29)))
 (=> x_2_p $x1838)))
(assert
 (let (($x1841 (not z_2_30)))
 (=> x_2_p $x1841)))
(assert
 (=> x_2_p z_2_31))
(assert
 (=> x_2_p z_2_32))
(assert
 (let (($x1848 (not z_2_33)))
 (=> x_2_p $x1848)))
(assert
 (let (($x1851 (not z_2_34)))
 (=> x_2_p $x1851)))
(assert
 (=> x_2_p z_2_35))
(assert
 (let (($x1856 (not z_2_36)))
 (=> x_2_p $x1856)))
(assert
 (=> x_2_p z_2_37))
(assert
 (=> x_2_p z_2_38))
(assert
 (=> x_2_p z_2_39))
(assert
 (=> x_2_p z_2_40))
(assert
 (let (($x1867 (not z_2_41)))
 (=> x_2_p $x1867)))
(assert
 (let (($x1870 (not z_2_42)))
 (=> x_2_p $x1870)))
(assert
 (let (($x1873 (not z_2_43)))
 (=> x_2_p $x1873)))
(assert
 (let (($x1876 (not z_2_44)))
 (=> x_2_p $x1876)))
(assert
 (=> x_2_p z_2_45))
(assert
 (=> x_2_p z_2_46))
(assert
 (=> x_2_p z_2_47))
(assert
 (let (($x1885 (not z_2_48)))
 (=> x_2_p $x1885)))
(assert
 (let (($x1888 (not z_2_49)))
 (=> x_2_p $x1888)))
(assert
 (=> x_2_p z_2_50))
(assert
 (=> x_2_p z_2_51))
(assert
 (let (($x1895 (not z_2_52)))
 (=> x_2_p $x1895)))
(assert
 (let (($x1898 (not z_2_53)))
 (=> x_2_p $x1898)))
(assert
 (=> x_2_p z_2_54))
(assert
 (=> x_2_p z_2_55))
(assert
 (=> x_2_p z_2_56))
(assert
 (=> x_2_p z_2_57))
(assert
 (=> x_2_p z_2_58))
(assert
 (let (($x1911 (not z_2_59)))
 (=> x_2_p $x1911)))
(assert
 (let (($x1914 (not z_2_60)))
 (=> x_2_p $x1914)))
(assert
 (=> x_2_p z_2_61))
(assert
 (let (($x1919 (not z_2_62)))
 (=> x_2_p $x1919)))
(assert
 (=> x_2_p z_2_63))
(assert
 (=> x_2_p z_2_64))
(assert
 (let (($x1926 (not z_2_65)))
 (=> x_2_p $x1926)))
(assert
 (=> x_2_p z_2_66))
(assert
 (let (($x1931 (not z_2_67)))
 (=> x_2_p $x1931)))
(assert
 (=> x_2_p z_2_68))
(assert
 (let (($x1936 (not z_2_69)))
 (=> x_2_p $x1936)))
(assert
 (let (($x1939 (not z_2_70)))
 (=> x_2_p $x1939)))
(assert
 (=> x_2_p z_2_71))
(assert
 (=> x_2_p z_2_72))
(assert
 (let (($x1946 (not z_2_73)))
 (=> x_2_p $x1946)))
(assert
 (let (($x1949 (not z_2_74)))
 (=> x_2_p $x1949)))
(assert
 (=> x_2_p z_2_75))
(assert
 (let (($x1954 (not z_2_76)))
 (=> x_2_p $x1954)))
(assert
 (=> x_2_p z_2_77))
(assert
 (let (($x1959 (not z_2_78)))
 (=> x_2_p $x1959)))
(assert
 (let (($x1962 (not z_2_79)))
 (=> x_2_p $x1962)))
(assert
 (let (($x1965 (not z_2_80)))
 (=> x_2_p $x1965)))
(assert
 (let (($x1968 (not z_2_81)))
 (=> x_2_p $x1968)))
(assert
 (=> x_2_p z_2_82))
(assert
 (let (($x1973 (not z_2_83)))
 (=> x_2_p $x1973)))
(assert
 (let (($x1976 (not z_2_84)))
 (=> x_2_p $x1976)))
(assert
 (=> x_2_p z_2_85))
(assert
 (or x_2_p))
(assert
 (let (($x1761 (not x_2_->)))
 (let (($x1759 (not x_2_U)))
 (let (($x1757 (not x_2_v)))
 (let (($x1755 (not x_2_&)))
 (let (($x1753 (not x_2_X)))
 (let (($x1751 (not x_2_!)))
 (let (($x1749 (not x_2_F)))
 (let (($x1747 (not x_2_G)))
 (and $x1747 $x1749 $x1751 $x1753 $x1755 $x1757 $x1759 $x1761))))))))))
(check-sat)

